\ This file has been generated by DOcplex
\ ENCODING=ISO-8859-1
\Problem name: CPLEX

Minimize
 obj: 19 b_0 + 13 b_1 + 12 b_2 - 6 b_3 - 6 b_4 + 2 f_0 - 2 f_1 -7
Subject To
 lin_eq_0: - 8 b_0 <= 0
 lin_eq_1: - b_2 + 3 b_3 <= 0
 lin_eq_2: 15 b_2 + 11 b_4 <= 0
 lin_eq_3: 19 b_0 + 18 f_1 <= 954

Bounds
 0 <= b_0 <= 1
 0 <= b_1 <= 1
 0 <= b_2 <= 1
 0 <= b_3 <= 1
 0 <= b_4 <= 1
 5 <= f_0 <= 54
       f_1 <= 91

Binaries
 b_0 b_1 b_2 b_3 b_4
End
